(set-info :origin "driver benchmark extracted from Microsoft SDV")
(set-logic HORN)
(declare-fun Proc32 (Int Int Bool Int Int) Bool)
(declare-fun Proc13 (Int Int Bool Int) Bool)
(declare-fun Proc21 (Int Int Bool Int) Bool)
(declare-fun Proc26 (Int Int Bool Int) Bool)
(declare-fun Proc12 (Int Int Bool) Bool)
(declare-fun Proc23 (Int Int Bool Int) Bool)
(declare-fun Proc25 (Int Int Bool Int) Bool)
(declare-fun Proc24 (Int Int Bool Int) Bool)
(declare-fun Proc30 (Int Int Bool Int) Bool)
(declare-fun Proc22 (Int Int Bool Int) Bool)
(declare-fun Proc34 (Int Int Bool) Bool)
(declare-fun Proc15 (Int Int Bool Int Int) Bool)
(declare-fun Proc19 (Int Int Bool Int) Bool)
(declare-fun Proc31 (Int Int Bool) Bool)
(declare-fun Proc0 (Int Int Bool Int) Bool)
(declare-fun Proc20 (Int Int Bool Int) Bool)
(declare-fun Proc27 (Int Int Bool Int) Bool)
(declare-fun Proc9 (Int Int Bool Int) Bool)
(declare-fun Proc35 (Int Int Bool Int Bool Int Int) Bool)
(declare-fun Proc33 (Int Int Bool Int Int Int Int) Bool)
(declare-fun Proc1
             (Int Int Bool Int Int Int Int Int Int Int Int Int Int Int Int)
             Bool)
(declare-fun Proc4 (Int Int Bool Int Int Int Int) Bool)
(declare-fun Proc29 (Int Int Bool Int) Bool)
(declare-fun Proc3 (Int Int Bool Int Int) Bool)
(declare-fun Proc14 (Int Int Bool Int) Bool)
(declare-fun Proc17 (Int Int Bool Int) Bool)
(declare-fun Proc6 (Int Int Bool Int Int Int Int) Bool)
(declare-fun Proc18 (Int Int Bool Int) Bool)
(declare-fun Proc8 (Int Int Bool Int Int Int Int) Bool)
(declare-fun Proc5 (Int Int Bool Int) Bool)
(declare-fun Proc11 (Int Int Bool) Bool)
(declare-fun Proc2 (Int Int Bool Int Int Int) Bool)
(declare-fun Proc28 (Int Int Bool Int) Bool)
(declare-fun Proc16 (Int Int Bool Int Int Bool Int) Bool)
(declare-fun Proc7 (Int Int Bool Int Int) Bool)
(declare-fun Proc10 (Int Int Bool Int Int Int Int) Bool)
(assert (forall ((A Int)
         (B Int)
         (C Int)
         (D Int)
         (E Int)
         (F Int)
         (G Int)
         (H Int)
         (I Int)
         (J Bool))
  (let ((a!1 (not (and (not (= F 0))
                       (= E (+ 24 F))
                       (Proc1 I H J E 99 F 0 D 0 0 0 1 1 1 C)))))
  (let ((a!2 (not (or (not J)
                      (not (Proc0 I H J 0))
                      (= G 0)
                      (= F 0)
                      a!1
                      (not (= B 0))))))
    (=> a!2 (Proc2 I H J G A B))))))
(assert (forall ((A Int)
         (B Int)
         (C Int)
         (D Int)
         (E Int)
         (F Int)
         (G Int)
         (H Int)
         (I Int)
         (J Bool)
         (K Int))
  (let ((a!1 (and (= K I) (not (<= H (+ 4 K)))))
        (a!2 (and (not (<= H I)) (= G H) (not (<= F (+ 4 G))) (not (<= F H)))))
  (let ((a!3 (or (not J)
                 (not a!1)
                 (not a!2)
                 (not (Proc3 F E J G K))
                 (not (and (= D 0) (= C F))))))
    (=> (not a!3) (Proc4 I E J B A D C))))))
(assert (forall ((A Int)
         (B Int)
         (C Int)
         (D Int)
         (E Int)
         (F Int)
         (G Int)
         (H Int)
         (J Bool))
  (let ((a!1 (and (not (<= F (+ 4 H))) (not (<= F G)))))
  (let ((a!2 (or (not J)
                 (not (= H G))
                 (not a!1)
                 (not (Proc5 F E J H))
                 (not (and (= D 0) (= C F))))))
    (=> (not a!2) (Proc6 G E J B A D C))))))
(assert (forall ((A Int) (B Int) (C Int) (J Bool))
  (=> (not (or (not J) (= C 0))) (Proc5 B A J C))))
(assert (forall ((A Int)
         (B Int)
         (C Int)
         (D Int)
         (E Int)
         (F Int)
         (G Int)
         (H Int)
         (I Int)
         (J Bool)
         (K Int)
         (L Int)
         (M Int)
         (N Int)
         (O Int)
         (P Int)
         (Q Int)
         (R Int))
  (let ((a!1 (not (and (= P (- 1073741670)) (= R P))))
        (a!2 (not (and (= O (- 1073741811)) (= R O)))))
  (let ((a!3 (and (or (not (= R 0)) (not (= Q R)))
                  (or a!1 (not (= Q R)))
                  (or a!2 (not (= Q R))))))
    (=> (not (or (not J) a!3)) (Proc1 N M J L K I H G F E D C B A Q))))))
(assert (forall ((A Int)
         (B Int)
         (C Int)
         (D Int)
         (E Int)
         (F Int)
         (G Int)
         (H Int)
         (I Int)
         (J Bool))
  (let ((a!1 (and (not (<= G (+ 1 I))) (not (<= G H)))))
  (let ((a!2 (or (not J)
                 (not (= I H))
                 (not a!1)
                 (not (Proc7 G F J I E))
                 (not (and (= D G) (= C E))))))
    (=> (not a!2) (Proc8 H F J B A D C))))))
(assert (forall ((A Int) (B Int) (C Int) (D Int) (J Bool))
  (let ((a!1 (not (or (not J) (not (= D 1))))))
    (=> a!1 (Proc7 C B J A D)))))
(assert (forall ((A Int) (B Int) (C Int) (J Bool)) (=> false (Proc9 C B J A))))
(assert (forall ((A Int)
         (B Int)
         (C Int)
         (D Int)
         (E Int)
         (F Int)
         (G Int)
         (H Int)
         (I Int)
         (J Bool)
         (K Int)
         (L Int)
         (M Int))
  (let ((a!1 (or (not (= G 1))
                 (not (and (= F G) (= E H)))
                 (not (and (= D E) (= C F)))))
        (a!2 (or (= G 1)
                 (not (and (= F G) (= E H)))
                 (not (and (= D E) (= C F)))))
        (a!3 (and (not (<= A (+ 1 B))) (not (<= A L)))))
  (let ((a!4 (or (= M 259)
                 (not (= B L))
                 (not a!3)
                 (not (Proc9 A K J B))
                 (not (and (= F K) (= E A)))
                 (not (and (= D E) (= C F))))))
  (let ((a!5 (and (or (not (= M 259)) (not (Proc8 L K J I M H G)) (and a!1 a!2))
                  a!4)))
    (=> (not (or (not J) a!5)) (Proc10 L K J I M D C)))))))
(assert (forall ((A Int) (B Int) (J Bool)) (=> J (Proc11 B A J))))
(assert (forall ((A Int) (B Int) (J Bool)) (=> J (Proc12 B A J))))
(assert (forall ((A Int) (B Int) (C Int) (J Bool))
  (let ((a!1 (not (or (not J) (not (= C 0))))))
    (=> a!1 (Proc13 B A J C)))))
(assert (forall ((A Int)
         (B Int)
         (C Int)
         (D Int)
         (E Int)
         (F Int)
         (G Int)
         (H Int)
         (I Int)
         (J Bool)
         (K Int)
         (L Int)
         (M Int)
         (S Bool)
         (T Bool)
         (U Bool))
  (let ((a!1 (not (and (not (<= M 0)) (Proc14 M L U K))))
        (a!2 (not (and (= D F) (= C G) (= S T) (= B H)))))
  (let ((a!3 (or (= G 0) (not (and (= F E) (not T))) a!2))
        (a!4 (or (not (and (= G 0) (= J U))) (not (and (= F A) (= T J))) a!2)))
  (let ((a!5 (and (or (= G 1) (and a!3 a!4)) (or (not (= G 1)) (and a!3 a!4)))))
  (let ((a!6 (not (or (not U)
                      a!1
                      (not (Proc13 K L U I))
                      (not (Proc12 K I U))
                      (not (Proc11 K I U))
                      (not (Proc15 K I U H G))
                      a!5))))
    (=> a!6 (Proc16 M L U D C S B))))))))
(assert (forall ((A Int) (B Int) (C Int) (J Bool))
  (let ((a!1 (not (or (not J) (not (= C 1))))))
    (=> a!1 (Proc17 B A J C)))))
(assert (forall ((A Int) (B Int) (C Int) (J Bool))
  (let ((a!1 (not (or (not J) (not (= C 0))))))
    (=> a!1 (Proc18 B A J C)))))
(assert (forall ((A Int) (B Int) (C Int) (J Bool))
  (let ((a!1 (not (or (not J) (not (= C 1))))))
    (=> a!1 (Proc19 B A J C)))))
(assert (forall ((A Int) (B Int) (C Int) (J Bool))
  (let ((a!1 (not (or (not J) (not (= C 0))))))
    (=> a!1 (Proc20 B A J C)))))
(assert (forall ((A Int) (B Int) (C Int) (J Bool))
  (let ((a!1 (not (or (not J) (not (= C 1))))))
    (=> a!1 (Proc21 B A J C)))))
(assert (forall ((A Int) (B Int) (C Int) (J Bool))
  (let ((a!1 (not (or (not J) (not (= C 1))))))
    (=> a!1 (Proc22 B A J C)))))
(assert (forall ((A Int) (B Int) (C Int) (J Bool))
  (let ((a!1 (not (or (not J) (not (= C 1))))))
    (=> a!1 (Proc23 B A J C)))))
(assert (forall ((A Int) (B Int) (C Int) (J Bool))
  (let ((a!1 (not (or (not J) (not (= C 1))))))
    (=> a!1 (Proc24 B A J C)))))
(assert (forall ((A Int) (B Int) (C Int) (J Bool))
  (let ((a!1 (not (or (not J) (not (= C 1))))))
    (=> a!1 (Proc25 B A J C)))))
(assert (forall ((A Int) (B Int) (C Int) (J Bool))
  (let ((a!1 (not (or (not J) (not (= C 0))))))
    (=> a!1 (Proc26 B A J C)))))
(assert (forall ((A Int) (B Int) (C Int) (J Bool))
  (let ((a!1 (not (or (not J) (not (= C 0))))))
    (=> a!1 (Proc27 B A J C)))))
(assert (forall ((A Int) (B Int) (C Int) (D Int) (J Bool))
  (let ((a!1 (or (not J) (not (= D (- 1073741823))) (not (= C D)))))
    (=> (not a!1) (Proc28 B A J C)))))
(assert (forall ((A Int) (B Int) (C Int) (J Bool)) (=> J (Proc0 C B J A))))
(assert (forall ((A Int) (B Int) (C Int) (J Bool))
  (let ((a!1 (not (or (not J) (not (= C 1))))))
    (=> a!1 (Proc29 B A J C)))))
(assert (forall ((A Int) (B Int) (C Int) (D Int) (J Bool))
  (=> (not (or (not J) (= D 0))) (Proc3 C B J A D))))
(assert (forall ((A Int)
         (B Int)
         (C Int)
         (D Int)
         (E Int)
         (F Int)
         (G Int)
         (H Int)
         (I Int)
         (J Bool)
         (K Int)
         (L Int)
         (M Int)
         (N Int)
         (O Int)
         (P Int)
         (Q Int)
         (R Int)
         (V Int)
         (W Int)
         (X Int)
         (Y Int)
         (Z Int)
         (A1 Int)
         (B1 Int)
         (C1 Int)
         (D1 Int))
  (let ((a!1 (or (= A1 0)
                 (not (Proc2 C1 B1 J Z D1 Y))
                 (not (and (= X C1) (= W Y)))
                 (not (Proc32 X B1 J W D1))
                 (= D1 0)
                 (not (and (= V W) (= R X)))))
        (a!2 (or (= A1 0)
                 (not (Proc28 C1 B1 J Q))
                 (not (and (= X C1) (= W Q)))
                 (not (Proc32 X B1 J W D1))
                 (= D1 0)
                 (not (and (= V W) (= R X)))))
        (a!3 (or (= A1 0)
                 (not (Proc4 C1 B1 J Z D1 P O))
                 (not (and (= X O) (= W P)))
                 (not (Proc32 X B1 J W D1))
                 (= D1 0)
                 (not (and (= V W) (= R X)))))
        (a!4 (or (= A1 0)
                 (not (Proc28 C1 B1 J N))
                 (not (and (= X C1) (= W N)))
                 (not (Proc32 X B1 J W D1))
                 (= D1 0)
                 (not (and (= V W) (= R X)))))
        (a!5 (or (= A1 0)
                 (not (Proc28 C1 B1 J M))
                 (not (and (= X C1) (= W M)))
                 (not (Proc32 X B1 J W D1))
                 (= D1 0)
                 (not (and (= V W) (= R X)))))
        (a!6 (or (= A1 0)
                 (not (Proc28 C1 B1 J L))
                 (not (and (= X C1) (= W L)))
                 (not (Proc32 X B1 J W D1))
                 (= D1 0)
                 (not (and (= V W) (= R X)))))
        (a!7 (or (= A1 0)
                 (not (Proc28 C1 B1 J K))
                 (not (and (= X C1) (= W K)))
                 (not (Proc32 X B1 J W D1))
                 (= D1 0)
                 (not (and (= V W) (= R X)))))
        (a!8 (or (not (Proc28 C1 B1 J I))
                 (not (and (= X C1) (= W I)))
                 (not (Proc32 X B1 J W D1))
                 (= D1 0)
                 (not (and (= V W) (= R X)))))
        (a!9 (or (= A1 0)
                 (not (Proc28 C1 B1 J H))
                 (not (and (= X C1) (= W H)))
                 (not (Proc32 X B1 J W D1))
                 (= D1 0)
                 (not (and (= V W) (= R X)))))
        (a!10 (or (= A1 0)
                  (not (Proc28 C1 B1 J G))
                  (not (and (= X C1) (= W G)))
                  (not (Proc32 X B1 J W D1))
                  (= D1 0)
                  (not (and (= V W) (= R X)))))
        (a!11 (or (= A1 0)
                  (not (Proc28 C1 B1 J F))
                  (not (and (= X C1) (= W F)))
                  (not (Proc32 X B1 J W D1))
                  (= D1 0)
                  (not (and (= V W) (= R X)))))
        (a!12 (or (not (Proc28 C1 B1 J E))
                  (not (and (= X C1) (= W E)))
                  (not (Proc32 X B1 J W D1))
                  (= D1 0)
                  (not (and (= V W) (= R X)))))
        (a!13 (or (= A1 0)
                  (not (Proc28 C1 B1 J D))
                  (not (and (= X C1) (= W D)))
                  (not (Proc32 X B1 J W D1))
                  (= D1 0)
                  (not (and (= V W) (= R X)))))
        (a!14 (or (not (Proc28 C1 B1 J C))
                  (not (and (= X C1) (= W C)))
                  (not (Proc32 X B1 J W D1))
                  (= D1 0)
                  (not (and (= V W) (= R X)))))
        (a!15 (or (= A1 0)
                  (not (Proc6 C1 B1 J Z D1 B A))
                  (not (and (= X A) (= W B)))
                  (not (Proc32 X B1 J W D1))
                  (= D1 0)
                  (not (and (= V W) (= R X))))))
  (let ((a!16 (not (or (not J)
                       (= D1 0)
                       (not (Proc30 C1 B1 J D1))
                       (= A1 0)
                       (not (Proc31 C1 B1 J))
                       (and a!1
                            a!2
                            a!3
                            a!4
                            a!5
                            a!6
                            a!7
                            a!8
                            a!9
                            a!10
                            a!11
                            a!12
                            a!13
                            a!14
                            a!15)))))
    (=> a!16 (Proc33 C1 B1 J Z D1 V R))))))
(assert (forall ((A Int) (B Int) (C Int) (J Bool))
  (=> (not (or (not J) (= C 0))) (Proc30 B A J C))))
(assert (forall ((A Int)
         (B Int)
         (C Int)
         (D Int)
         (E Int)
         (F Int)
         (G Int)
         (H Int)
         (I Int)
         (J Bool)
         (K Int)
         (L Int)
         (M Int)
         (N Int)
         (O Int)
         (P Int)
         (Q Int)
         (R Int)
         (V Int)
         (W Int)
         (X Int)
         (Y Int)
         (Z Int)
         (A1 Int)
         (B1 Int)
         (C1 Int)
         (D1 Int))
  (let ((a!1 (or (not (and (= M C1) (= L D1))) (not (and (= K L) (= I M)))))
        (a!2 (or (not (and (= M C1) (= L E))) (not (and (= K L) (= I M)))))
        (a!3 (and (not (<= C (+ 1 D))) (not (<= C E))))
        (a!4 (or (not (= A 1))
                 (not (and (= M A) (= L B)))
                 (not (and (= K L) (= I M)))))
        (a!5 (or (= A 1)
                 (not (and (= M A) (= L B)))
                 (not (and (= K L) (= I M)))))
        (a!7 (or (not (= B1 0))
                 (not (and (= M C1) (= L D1)))
                 (not (and (= K L) (= I M))))))
  (let ((a!6 (and a!2
                  (or (not (= D E))
                      (not a!3)
                      (not (Proc10 C C1 J D F B A))
                      (and a!4 a!5)))))
  (let ((a!8 (and a!1
                  (or (= B1 0)
                      (not (Proc34 D1 C1 J))
                      (not (Proc33 D1 C1 J H G F E))
                      a!6)
                  a!7)))
  (let ((a!9 (not (or (not J)
                      (not (Proc19 D1 C1 J B1))
                      (not (Proc26 D1 C1 J A1))
                      (not (Proc20 D1 C1 J Z))
                      (not (Proc25 D1 C1 J Y))
                      (not (Proc18 D1 C1 J X))
                      (not (Proc22 D1 C1 J W))
                      (not (Proc29 D1 C1 J V))
                      (not (Proc27 D1 C1 J R))
                      (not (Proc17 D1 C1 J Q))
                      (not (Proc23 D1 C1 J P))
                      (not (Proc24 D1 C1 J O))
                      (not (Proc21 D1 C1 J N))
                      a!8))))
    (=> a!9 (Proc15 D1 C1 J K I))))))))
(assert (forall ((A Int) (B Int) (J Bool)) (=> J (Proc31 B A J))))
(assert (forall ((A Int) (B Int) (C Int) (D Int) (J Bool)) (=> J (Proc32 D C J B A))))
(assert (forall ((A Int) (B Int) (J Bool)) (=> J (Proc34 B A J))))
(assert (forall ((A Int)
         (B Int)
         (C Int)
         (D Int)
         (E Int)
         (F Int)
         (G Int)
         (H Int)
         (I Int)
         (J Bool)
         (K Int)
         (L Int)
         (M Int)
         (N Int)
         (O Int)
         (P Int)
         (Q Int)
         (R Int)
         (V Int)
         (W Int)
         (X Int)
         (Y Int)
         (Z Int)
         (A1 Int)
         (B1 Int)
         (C1 Int)
         (D1 Int)
         (E1 Int)
         (F1 Int)
         (G1 Int)
         (H1 Int)
         (I1 Int)
         (J1 Int)
         (K1 Int)
         (L1 Int)
         (M1 Int)
         (N1 Int)
         (O1 Int)
         (P1 Int)
         (Q1 Int)
         (R1 Int)
         (S1 Int)
         (T1 Int)
         (U1 Int)
         (V1 Int)
         (W1 Int)
         (X1 Int)
         (Y1 Int)
         (Z1 Int)
         (A2 Int)
         (B2 Int)
         (C2 Int))
  (let ((a!1 (and (= C2 B2)
                  (not (<= A2 (+ 240 C2)))
                  (not (<= A2 B2))
                  (= Z1 A2)
                  (not (<= Y1 (+ 4 Z1)))
                  (not (<= Y1 A2))
                  (= X1 Y1)
                  (not (<= W1 (+ 332 X1)))))
        (a!2 (and (not (<= W1 Y1))
                  (= V1 W1)
                  (not (<= U1 (+ 4 V1)))
                  (not (<= U1 W1))
                  (= T1 U1)
                  (not (<= S1 (+ 536 T1)))
                  (not (<= S1 U1))
                  (= R1 S1)
                  (not (<= Q1 (+ 240 R1)))
                  (not (<= Q1 S1))
                  (= P1 Q1)
                  (not (<= O1 (+ 240 P1)))
                  (not (<= O1 Q1))
                  (= N1 O1)
                  (not (<= M1 (+ 240 N1)))
                  (not (<= M1 O1))
                  (= L1 M1)
                  (not (<= K1 (+ 4 L1)))
                  (not (<= K1 M1))
                  (= J1 K1)
                  (not (<= I1 (+ 536 J1)))
                  (not (<= I1 K1))
                  (= H1 I1)
                  (not (<= G1 (+ 332 H1)))
                  (not (<= G1 I1))
                  (= F1 G1)
                  (not (<= E1 (+ 240 F1)))
                  (not (<= E1 G1))
                  (= D1 E1)
                  (not (<= C1 (+ 240 D1)))
                  (not (<= C1 E1))
                  (= B1 C1)
                  (not (<= A1 (+ 332 B1)))
                  (not (<= A1 C1))
                  (= Z A1)
                  (not (<= Y (+ 4 Z)))
                  (not (<= Y A1))
                  (= X Y)
                  (not (<= W (+ 240 X)))
                  (not (<= W Y))
                  (= V W)
                  (not (<= R (+ 240 V)))
                  (not (<= R W))
                  (= Q R)
                  (not (<= P (+ 240 Q)))
                  (not (<= P R))
                  (= O P)
                  (not (<= N (+ 240 O)))
                  (not (<= N P))
                  (= M N)
                  (not (<= L (+ 240 M)))
                  (not (<= L N))
                  (= K L)
                  (not (<= I (+ 40 K)))
                  (not (<= I L))
                  (= H I)
                  (not (<= G (+ 332 H)))
                  (not (<= G I))
                  (= F G)
                  (not (<= E (+ 4 F)))
                  (not (<= E G))
                  (= D E)
                  (not (<= C (+ 40 D)))
                  (not (<= C E)))))
  (let ((a!3 (not (or (not J) (not a!1) (not a!2) (not (= B C))))))
    (=> a!3 (Proc14 B2 A J B))))))
(assert (forall ((A Int)
         (B Int)
         (C Int)
         (D Int)
         (E Int)
         (F Int)
         (G Int)
         (H Int)
         (J Bool)
         (S Bool)
         (T Bool))
  (let ((a!1 (or (not T) (not (and (Proc16 H G true F E S D) (not S))))))
    (=> (not a!1) (Proc35 H G T C J B A)))))
(assert (let ((a!1 (exists ((V0 Int)
                    (V1 Int)
                    (V2 Bool)
                    (V3 Int)
                    (V4 Bool)
                    (V5 Int)
                    (V6 Int))
             (not (=> (and (Proc35 V0 V1 V2 V3 V4 V5 V6) (not false)) false)))))
  (not a!1)))

(check-sat)
